c cvc-plus_3
c i 2  6  12  3  7  13  5  11  19  0
c 2  : (a_9)[0]
c 3  : (b_10)[0]
c 4  : n1406
c 5  : (c_11)[0]
c 6  : (a_9)[1]
c 7  : (b_10)[1]
c 8  : n1411
c 9  : n1408
c 10  : n1430
c 11  : (c_11)[1]
c 12  : (a_9)[2]
c 13  : (b_10)[2]
c 14  : n1416
c 15  : n1413
c 16  : n1433
c 17  : n1434
c 18  : n1435
c 19  : (c_11)[2]
p cnf 18 39
2  3  -4  0
-2  -3  -4  0
2  -3  4  0
-2  3  4  0
-4  5  0
4  -5  0
6  7  -8  0
-6  -7  -8  0
6  -7  8  0
-6  7  8  0
2  -9  0
3  -9  0
-2  -3  9  0
8  9  -10  0
-8  -9  -10  0
8  -9  10  0
-8  9  10  0
-10  11  0
10  -11  0
12  13  -14  0
-12  -13  -14  0
12  -13  14  0
-12  13  14  0
6  -15  0
7  -15  0
-6  -7  15  0
8  -16  0
2  -16  0
3  -16  0
-2  -3  -8  16  0
-15  17  0
-16  17  0
15  16  -17  0
14  17  -18  0
-14  -17  -18  0
14  -17  18  0
-14  17  18  0
-18  19  0
18  -19  0
